variable inputfilename string capsule_step1.data
variable outputfilename string capsule_step2.data

atom_style full
bond_style harmonic
pair_style lj/cut/coul/cut 0.5
read_data ${inputfilename} extra/bond/per/atom 8
bond_coeff 1 80.0 0.2
pair_coeff * * 0.001 0.001
group membrane type 1
neighbor 2.4 bin
create_bonds many membrane membrane 1 0.000001 0.23 #max distance 0.3(180) 0.15(540) 0.1(1620) 0.05(4860)
write_data ${outputfilename}
